%%%mzn-stat: initTime=0.006351403
%%%mzn-stat: objective=279
%%%mzn-stat: nodes=15462
%%%mzn-stat: restarts=32
%%%mzn-stat: peakDepth=275
%%%mzn-stat: solveTime=4.180290416
%%%mzn-stat: variables=641
%%%mzn-stat: propagators=431
%%%mzn-stat: failures=12881
%%%mzn-stat: propagations=445466
%%%mzn-stat: nogoods=12881
%%%mzn-stat: AverageConflictSize=37.49421628755531
%%%mzn-stat: NumUnitNogoodsLearned=246
%%%mzn-stat: AverageLearnedNogoodLength=45.98750097042155
%%%mzn-stat: AverageBacktrackAmount=0
%%%mzn-stat: AverageLbd=21.086872137256425
%%%mzn-stat-end
maxleg = 279;
succ = array1d(1..50,[29, 8, 1, 9, 13, 40, 18, 44, 39, 17, 16, 28, 20, 50, 23, 32, 48, 42, 25, 35, 45, 41, 34, 33, 3, 11, 47, 24, 49, 22, 30, 7, 2, 12, 36, 27, 4, 14, 31, 46, 21, 5, 19, 37, 26, 43, 6, 38, 10, 15]);
% time elapsed: 9.29 s
----------
%%%mzn-stat: initTime=0.006351403
%%%mzn-stat: objective=275
%%%mzn-stat: nodes=137790
%%%mzn-stat: restarts=38
%%%mzn-stat: peakDepth=275
%%%mzn-stat: solveTime=38.842023487
%%%mzn-stat: variables=641
%%%mzn-stat: propagators=431
%%%mzn-stat: failures=131119
%%%mzn-stat: propagations=3581381
%%%mzn-stat: nogoods=131119
%%%mzn-stat: AverageConflictSize=34.59553535338128
%%%mzn-stat: NumUnitNogoodsLearned=246
%%%mzn-stat: AverageLearnedNogoodLength=42.22048673342536
%%%mzn-stat: AverageBacktrackAmount=0
%%%mzn-stat: AverageLbd=16.848824350399255
%%%mzn-stat-end
maxleg = 275;
succ = array1d(1..50,[3, 8, 43, 24, 13, 40, 18, 9, 39, 17, 16, 34, 20, 50, 23, 32, 48, 42, 46, 35, 45, 41, 31, 33, 10, 11, 47, 12, 49, 22, 30, 7, 2, 38, 36, 27, 4, 14, 28, 25, 21, 5, 19, 37, 26, 44, 6, 29, 1, 15]);
% time elapsed: 43.95 s
----------
%%%mzn-stat: initTime=0.006351403
%%%mzn-stat: objective=262
%%%mzn-stat: nodes=138551
%%%mzn-stat: restarts=38
%%%mzn-stat: peakDepth=284
%%%mzn-stat: solveTime=38.902070454
%%%mzn-stat: variables=641
%%%mzn-stat: propagators=431
%%%mzn-stat: failures=131429
%%%mzn-stat: propagations=3589948
%%%mzn-stat: nogoods=131429
%%%mzn-stat: AverageConflictSize=34.52744828005996
%%%mzn-stat: NumUnitNogoodsLearned=246
%%%mzn-stat: AverageLearnedNogoodLength=42.147296258816546
%%%mzn-stat: AverageBacktrackAmount=0
%%%mzn-stat: AverageLbd=16.822299492501656
%%%mzn-stat-end
maxleg = 262;
succ = array1d(1..50,[3, 8, 43, 24, 13, 40, 18, 9, 39, 17, 16, 34, 20, 50, 23, 32, 48, 42, 46, 36, 45, 41, 31, 33, 10, 11, 47, 12, 49, 22, 30, 7, 2, 38, 27, 35, 4, 14, 28, 25, 21, 5, 19, 37, 26, 44, 6, 29, 1, 15]);
% time elapsed: 44.01 s
----------
==========
% time elapsed: 44.01 s
%%%mzn-stat: initTime=0.006351403
%%%mzn-stat: objective=262
%%%mzn-stat: nodes=138551
%%%mzn-stat: restarts=38
%%%mzn-stat: peakDepth=284
%%%mzn-stat: solveTime=38.902421929
%%%mzn-stat: variables=641
%%%mzn-stat: propagators=431
%%%mzn-stat: failures=131430
%%%mzn-stat: propagations=3590006
%%%mzn-stat: nogoods=131430
%%%mzn-stat: AverageConflictSize=34.52726166019934
%%%mzn-stat: NumUnitNogoodsLearned=247
%%%mzn-stat: AverageLearnedNogoodLength=42.14698318496538
%%%mzn-stat: AverageBacktrackAmount=0
%%%mzn-stat: AverageLbd=16.82217910674884
%%%mzn-stat-end
